; benchmark generated from python API
(set-info :status unknown)
(declare-fun x_months () Int)
(declare-fun x_beta () Int)
(declare-fun y_months () Int)
(declare-fun y_beta () Int)
(assert
 (<= (- 1202) x_months))
(assert
 (>= 1209 x_months))
(assert
 (>= x_beta 0))
(assert
 (let ((?x1458 (+ x_months 24003)))
 (let ((?x1642 (- ?x1458 (* (div (- ?x1458 1) 12) 12))))
 (let ((?x1765 (ite (or (= ?x1642 4) (= ?x1642 6) (= ?x1642 9) (= ?x1642 11)) 30 31)))
 (let (($x801 (and (= (mod (div (- ?x1458 1) 12) 4) 0) (and (distinct (mod (div (- ?x1458 1) 12) 100) 0) true))))
 (let ((?x1372 (ite (or $x801 (= (mod (div (- ?x1458 1) 12) 400) 0)) 29 28)))
 (< x_beta (ite (= ?x1642 2) ?x1372 ?x1765))))))))
(assert
 (<= (- 1202) y_months))
(assert
 (>= 1209 y_months))
(assert
 (>= y_beta 0))
(assert
 (let ((?x2162 (+ y_months 24003)))
 (let ((?x2026 (- ?x2162 (* (div (- ?x2162 1) 12) 12))))
 (let ((?x2106 (ite (or (= ?x2026 4) (= ?x2026 6) (= ?x2026 9) (= ?x2026 11)) 30 31)))
 (let (($x2116 (and (= (mod (div (- ?x2162 1) 12) 4) 0) (and (distinct (mod (div (- ?x2162 1) 12) 100) 0) true))))
 (let ((?x2011 (ite (or $x2116 (= (mod (div (- ?x2162 1) 12) 400) 0)) 29 28)))
 (< y_beta (ite (= ?x2026 2) ?x2011 ?x2106))))))))
(assert
 (let (($x628 (and (= x_months (- (+ (* 2023 12) 6) 24003)) (<= 0 x_beta))))
 (or (> x_months (- (+ (* 2023 12) 6) 24003)) $x628)))
(assert
 (let ((?x2128 (+ x_beta 1)))
 (let ((?x2180 (+ (+ x_months 1) 24003)))
 (let ((?x2117 (- ?x2180 (* (div (- ?x2180 1) 12) 12))))
 (let ((?x1177 (ite (or (= ?x2117 4) (= ?x2117 6) (= ?x2117 9) (= ?x2117 11)) 30 31)))
 (let (($x1295 (and (= (mod (div (- ?x2180 1) 12) 4) 0) (and (distinct (mod (div (- ?x2180 1) 12) 100) 0) true))))
 (let (($x2139 (or $x1295 (= (mod (div (- ?x2180 1) 12) 400) 0))))
 (let ((?x2190 (ite (= ?x2117 2) (ite $x2139 29 28) ?x1177)))
 (let ((?x1263 (ite (> 1 ?x2128) 1 (ite (> ?x2128 ?x2190) ?x2190 ?x2128))))
 (let ((?x2052 (ite (> 1 ?x1263) 1 (ite (> ?x1263 ?x2190) ?x2190 ?x1263))))
 (let ((?x516 (ite (= 2 ?x2117) (ite $x2139 31 31) (ite (= 1 ?x2117) (ite $x2139 0 0) 0))))
 (let ((?x1807 (ite (= 4 ?x2117) (ite $x2139 91 90) (ite (= 3 ?x2117) (ite $x2139 60 59) ?x516))))
 (let ((?x2085 (ite (= 6 ?x2117) (ite $x2139 152 151) (ite (= 5 ?x2117) (ite $x2139 121 120) ?x1807))))
 (let ((?x1882 (ite (= 8 ?x2117) (ite $x2139 213 212) (ite (= 7 ?x2117) (ite $x2139 182 181) ?x2085))))
 (let ((?x1615 (ite (= 10 ?x2117) (ite $x2139 274 273) (ite (= 9 ?x2117) (ite $x2139 244 243) ?x1882))))
 (let ((?x1965 (ite (= 12 ?x2117) (ite $x2139 335 334) (ite (= 11 ?x2117) (ite $x2139 305 304) ?x1615))))
 (let ((?x2056 (+ (* 365 (- (div (- ?x2180 1) 12) 1)) (div (- (div (- ?x2180 1) 12) 1) 4))))
 (let ((?x1689 (+ (- ?x2056 (div (- (div (- ?x2180 1) 12) 1) 100)) (div (- (div (- ?x2180 1) 12) 1) 400))))
 (let ((?x1936 (+ (+ (- (+ (+ ?x1689 ?x1965) (- ?x2052 1)) 730179) 0) 730179)))
 (let ((?x1616 (mod ?x1936 146097)))
 (let ((?x2007 (div ?x1616 36524)))
 (let ((?x926 (ite (<= 4 ?x2007) 3 ?x2007)))
 (let ((?x1966 (- ?x1616 (* ?x926 36524))))
 (let ((?x1939 (mod ?x1966 1461)))
 (let ((?x1439 (div ?x1939 365)))
 (let ((?x1264 (ite (<= 4 ?x1439) 3 ?x1439)))
 (let ((?x1740 (+ (+ (* (div ?x1936 146097) 400) (* ?x926 100)) (* (div ?x1966 1461) 4))))
 (let ((?x1921 (+ (+ ?x1740 ?x1264) 1)))
 (let (($x1741 (or (and (= (mod ?x1921 4) 0) (and (distinct (mod ?x1921 100) 0) true)) (= (mod ?x1921 400) 0))))
 (let ((?x1703 (- ?x1939 (* ?x1264 365))))
 (let ((?x1954 (ite $x1741 31 31)))
 (let (($x1199 (>= ?x1703 ?x1954)))
 (let ((?x367 (ite $x1199 (+ (- ?x1703 ?x1954) 1) (+ (- ?x1703 (ite $x1741 0 0)) 1))))
 (let ((?x1981 (ite $x1741 60 59)))
 (let (($x453 (>= ?x1703 ?x1981)))
 (let ((?x1618 (ite $x1741 91 90)))
 (let (($x1448 (>= ?x1703 ?x1618)))
 (let ((?x2058 (ite $x1448 (+ (- ?x1703 ?x1618) 1) (ite $x453 (+ (- ?x1703 ?x1981) 1) ?x367))))
 (let ((?x384 (ite $x1741 121 120)))
 (let (($x582 (>= ?x1703 ?x384)))
 (let ((?x1187 (ite $x1741 152 151)))
 (let (($x1449 (>= ?x1703 ?x1187)))
 (let ((?x881 (ite $x1449 (+ (- ?x1703 ?x1187) 1) (ite $x582 (+ (- ?x1703 ?x384) 1) ?x2058))))
 (let ((?x1297 (ite $x1741 182 181)))
 (let (($x2037 (>= ?x1703 ?x1297)))
 (let ((?x1594 (ite $x1741 213 212)))
 (let (($x317 (>= ?x1703 ?x1594)))
 (let ((?x1433 (ite $x317 (+ (- ?x1703 ?x1594) 1) (ite $x2037 (+ (- ?x1703 ?x1297) 1) ?x881))))
 (let ((?x1839 (ite $x1741 244 243)))
 (let (($x1291 (>= ?x1703 ?x1839)))
 (let ((?x1509 (ite $x1741 274 273)))
 (let (($x485 (>= ?x1703 ?x1509)))
 (let ((?x1490 (ite $x485 (+ (- ?x1703 ?x1509) 1) (ite $x1291 (+ (- ?x1703 ?x1839) 1) ?x1433))))
 (let ((?x454 (ite $x1741 305 304)))
 (let (($x407 (>= ?x1703 ?x454)))
 (let ((?x1508 (ite $x1741 335 334)))
 (let (($x1197 (>= ?x1703 ?x1508)))
 (let ((?x1183 (ite $x1197 (+ (- ?x1703 ?x1508) 1) (ite $x407 (+ (- ?x1703 ?x454) 1) ?x1490))))
 (let (($x1067 (= 0 0)))
 (let ((?x2024 (+ (- (ite $x1067 ?x2052 ?x1183) 1) 1)))
 (let ((?x1257 (ite $x582 5 (ite $x1448 4 (ite $x453 3 (ite $x1199 2 1))))))
 (let ((?x1289 (ite $x1291 9 (ite $x317 8 (ite $x2037 7 (ite $x1449 6 ?x1257))))))
 (let ((?x2074 (+ (* (ite $x1067 (div (- ?x2180 1) 12) ?x1921) 12) (ite $x1067 ?x2117 (ite $x1197 12 (ite $x407 11 (ite $x485 10 ?x1289)))))))
 (let ((?x1235 (+ (+ (- ?x2074 24003) 0) 24003)))
 (let ((?x2023 (div (- ?x1235 1) 12)))
 (let ((?x1393 (- ?x1235 (* ?x2023 12))))
 (let ((?x203 (ite (or (= ?x1393 4) (= ?x1393 6) (= ?x1393 9) (= ?x1393 11)) 30 31)))
 (let (($x1831 (or (and (= (mod ?x2023 4) 0) (and (distinct (mod ?x2023 100) 0) true)) (= (mod ?x2023 400) 0))))
 (let ((?x327 (ite (= ?x1393 2) (ite $x1831 29 28) ?x203)))
 (let ((?x1502 (ite (> 1 ?x2024) 1 (ite (> ?x2024 ?x327) ?x327 ?x2024))))
 (let ((?x324 (ite (> 1 ?x1502) 1 (ite (> ?x1502 ?x327) ?x327 ?x1502))))
 (let ((?x1118 (ite (= 2 ?x1393) (ite $x1831 31 31) (ite (= 1 ?x1393) (ite $x1831 0 0) 0))))
 (let ((?x1742 (ite (= 4 ?x1393) (ite $x1831 91 90) (ite (= 3 ?x1393) (ite $x1831 60 59) ?x1118))))
 (let ((?x1683 (ite (= 6 ?x1393) (ite $x1831 152 151) (ite (= 5 ?x1393) (ite $x1831 121 120) ?x1742))))
 (let ((?x460 (ite (= 8 ?x1393) (ite $x1831 213 212) (ite (= 7 ?x1393) (ite $x1831 182 181) ?x1683))))
 (let ((?x502 (ite (= 10 ?x1393) (ite $x1831 274 273) (ite (= 9 ?x1393) (ite $x1831 244 243) ?x460))))
 (let ((?x1750 (ite (= 12 ?x1393) (ite $x1831 335 334) (ite (= 11 ?x1393) (ite $x1831 305 304) ?x502))))
 (let ((?x1041 (- (+ (* 365 (- ?x2023 1)) (div (- ?x2023 1) 4)) (div (- ?x2023 1) 100))))
 (let ((?x390 (- (+ (+ (+ ?x1041 (div (- ?x2023 1) 400)) ?x1750) (- ?x324 1)) 730179)))
 (let ((?x1204 (+ (+ ?x390 15) 730179)))
 (let ((?x295 (mod ?x1204 146097)))
 (let ((?x1434 (div ?x295 36524)))
 (let ((?x1546 (ite (<= 4 ?x1434) 3 ?x1434)))
 (let ((?x1422 (- ?x295 (* ?x1546 36524))))
 (let ((?x1668 (mod ?x1422 1461)))
 (let ((?x261 (div ?x1668 365)))
 (let ((?x1834 (ite (<= 4 ?x261) 3 ?x261)))
 (let ((?x1733 (+ (+ (* (div ?x1204 146097) 400) (* ?x1546 100)) (* (div ?x1422 1461) 4))))
 (let ((?x1188 (+ (+ ?x1733 ?x1834) 1)))
 (let (($x2166 (or (and (= (mod ?x1188 4) 0) (and (distinct (mod ?x1188 100) 0) true)) (= (mod ?x1188 400) 0))))
 (let ((?x2109 (- ?x1668 (* ?x1834 365))))
 (let ((?x1468 (ite $x2166 31 31)))
 (let (($x2202 (>= ?x2109 ?x1468)))
 (let ((?x283 (ite $x2202 (+ (- ?x2109 ?x1468) 1) (+ (- ?x2109 (ite $x2166 0 0)) 1))))
 (let ((?x260 (ite $x2166 60 59)))
 (let (($x1513 (>= ?x2109 ?x260)))
 (let ((?x589 (ite $x2166 91 90)))
 (let (($x1579 (>= ?x2109 ?x589)))
 (let ((?x1480 (ite $x1579 (+ (- ?x2109 ?x589) 1) (ite $x1513 (+ (- ?x2109 ?x260) 1) ?x283))))
 (let ((?x1914 (ite $x2166 121 120)))
 (let (($x527 (>= ?x2109 ?x1914)))
 (let ((?x1279 (ite $x2166 152 151)))
 (let (($x479 (>= ?x2109 ?x1279)))
 (let ((?x1648 (ite $x479 (+ (- ?x2109 ?x1279) 1) (ite $x527 (+ (- ?x2109 ?x1914) 1) ?x1480))))
 (let ((?x1585 (ite $x2166 182 181)))
 (let (($x943 (>= ?x2109 ?x1585)))
 (let ((?x508 (ite $x2166 213 212)))
 (let (($x1325 (>= ?x2109 ?x508)))
 (let ((?x2196 (ite $x1325 (+ (- ?x2109 ?x508) 1) (ite $x943 (+ (- ?x2109 ?x1585) 1) ?x1648))))
 (let ((?x1694 (ite $x2166 244 243)))
 (let (($x240 (>= ?x2109 ?x1694)))
 (let ((?x2138 (ite $x2166 274 273)))
 (let (($x351 (>= ?x2109 ?x2138)))
 (let ((?x1390 (ite $x351 (+ (- ?x2109 ?x2138) 1) (ite $x240 (+ (- ?x2109 ?x1694) 1) ?x2196))))
 (let ((?x2134 (ite $x2166 305 304)))
 (let (($x1704 (>= ?x2109 ?x2134)))
 (let ((?x1705 (ite $x2166 335 334)))
 (let (($x475 (>= ?x2109 ?x1705)))
 (let ((?x2018 (ite $x475 (+ (- ?x2109 ?x1705) 1) (ite $x1704 (+ (- ?x2109 ?x2134) 1) ?x1390))))
 (let (($x2208 (= 15 0)))
 (let ((?x2172 (ite $x527 5 (ite $x1579 4 (ite $x1513 3 (ite $x2202 2 1))))))
 (let ((?x1097 (ite $x240 9 (ite $x1325 8 (ite $x943 7 (ite $x479 6 ?x2172))))))
 (let ((?x1717 (ite $x475 12 (ite $x1704 11 (ite $x351 10 ?x1097)))))
 (let (($x1100 (= (- (+ (* (ite $x2208 ?x2023 ?x1188) 12) (ite $x2208 ?x1393 ?x1717)) 24003) y_months)))
 (and $x1100 (= (- (ite $x2208 ?x324 ?x2018) 1) y_beta))))))))))))))))))))))))))))))))))))))))))))))))))))))))))))))))))))))))))))))))))))))))))))))))))))))))))))))))))))))))))))))
(assert
 (let (($x2616 (and (= y_months (- (+ (* 2023 12) 6) 24003)) (<= 0 y_beta))))
 (or (> y_months (- (+ (* 2023 12) 6) 24003)) $x2616)))
(assert
 (and (= x_months (- (+ (* 2028 12) 4) 24003)) (= 0 x_beta)))
(assert
 (and (= y_months (- (+ (* 2028 12) 5) 24003)) (= 15 y_beta)))
(check-sat)
